Reading model...
...model read.
creating competitive generators file...
...competitive generators recorded.
Loading data...
.. real-time data read.
Compiling instance...
...instance created.
Creating Offer Mitigation (model will solve as dispatch if TRUE)...
...storage offer mitigation file created
Converting model to MPEC...
...converted
NOTE: initial MIP solve with only storage competitive to get feasible solution
Solving...

Welcome to IBM(R) ILOG(R) CPLEX(R) Interactive Optimizer 12.10.0.0
  with Simplex, Mixed Integer & Barrier Optimizers
5725-A06 5725-A29 5724-Y48 5724-Y49 5724-Y54 5724-Y55 5655-Y21
Copyright IBM Corp. 1988, 2019.  All Rights Reserved.

Type 'help' for a list of available commands.
Type 'help' followed by a command name for more
information on commands.

CPLEX> Logfile 'cplex.log' closed.
Logfile 'C:\Users\wenmi\Desktop\competitiveMPEC\logs\tmp1u_2ywb7.cplex.log' open.
CPLEX> New value for parallel optimization mode: -1
CPLEX> New value for mixed integer optimality gap tolerance: 0.05
CPLEX> New value for deterministic time limit in ticks: 100000
CPLEX> Problem 'C:\Users\wenmi\Desktop\competitiveMPEC\logs\tmp2cre8_y9.pyomo.lp' read.
Read time = 0.33 sec. (27.40 ticks)
CPLEX> Problem name         : C:\Users\wenmi\Desktop\competitiveMPEC\logs\tmp2cre8_y9.pyomo.lp
Objective sense      : Maximize
Variables            :  107779  [Nneg: 1,  Box: 44054,  Free: 8928,
                                 Binary: 54796]
Objective nonzeros   :   17521
Linear constraints   :  246995  [Less: 82866,  Greater: 118424,  Equal: 45705]
  Nonzeros           :  580828
  RHS nonzeros       :  134590

Variables            : Min LB: -5000.000        Max UB: 1000000.       
Objective nonzeros   : Min   : 0.008333333      Max   : 2500.000       
Linear constraints   :
  Nonzeros           : Min   : 0.008333333      Max   : 1000000.       
  RHS nonzeros       : Min   : 0.008333333      Max   : 1000000.       
CPLEX> Version identifier: 12.10.0.0 | 2019-11-26 | 843d4de2ae
CPXPARAM_Parallel                                -1
CPXPARAM_DetTimeLimit                            100000
CPXPARAM_MIP_Tolerances_MIPGap                   0.050000000000000003
Tried aggregator 3 times.
MIP Presolve eliminated 181889 rows and 41609 columns.
MIP Presolve added 6047 rows and 0 columns.
MIP Presolve modified 48792 coefficients.
Aggregator did 25824 substitutions.
Reduced MIP has 45329 rows, 38714 columns, and 125602 nonzeros.
Reduced MIP has 15227 binaries, 0 generals, 0 SOSs, and 0 indicators.
Presolve time = 0.34 sec. (328.95 ticks)
Probing fixed 832 vars, tightened 6950 bounds.
Probing time = 0.09 sec. (14.40 ticks)
Tried aggregator 2 times.
Detecting symmetries...
MIP Presolve eliminated 1856 rows and 1664 columns.
MIP Presolve modified 5511 coefficients.
Aggregator did 48 substitutions.
Reduced MIP has 43425 rows, 37002 columns, and 120082 nonzeros.
Reduced MIP has 14395 binaries, 0 generals, 0 SOSs, and 0 indicators.
Presolve time = 0.13 sec. (205.85 ticks)
Probing fixed 0 vars, tightened 145 bounds.
Probing time = 0.17 sec. (19.07 ticks)
Clique table members: 80752.
MIP emphasis: balance optimality and feasibility.
MIP search method: dynamic search.
Parallel mode: opportunistic, using up to 16 threads.
Root relaxation solution time = 0.66 sec. (1674.04 ticks)

        Nodes                                         Cuts/
   Node  Left     Objective  IInf  Best Integer    Best Bound    ItCnt     Gap

      0     0        0.0000   324                      0.0000    10751         
*     0+    0                            0.0000        0.0000             0.00%
      0     0        cutoff              0.0000        0.0000    10751    0.00%
Elapsed time = 1.72 sec. (2665.00 ticks, tree = 0.01 MB, solutions = 1)

Root node processing (before b&c):
  Real time             =    1.73 sec. (2668.79 ticks)
Parallel b&c, 16 threads:
  Real time             =    0.00 sec. (0.00 ticks)
  Sync time (average)   =    0.00 sec.
  Wait time (average)   =    0.00 sec.
                          ------------
Total (root+branch&cut) =    1.73 sec. (2668.79 ticks)

Solution pool: 1 solution saved.

MIP - Integer optimal solution:  Objective =  3.5644234231e-09
Solution time =    1.73 sec.  Iterations = 10751  Nodes = 0
Deterministic time = 2669.10 ticks  (1539.27 ticks/sec)

CPLEX> Incumbent solution written to file 'C:\Users\wenmi\Desktop\competitiveMPEC\logs\tmp0a_xt1po.cplex.sol'.
CPLEX> NOTE: no warmstart specified for MIP iteration, default behavior is true
NOTE: resolving with all competitive generators using storage-only solution to warmstart
Solving...

Welcome to IBM(R) ILOG(R) CPLEX(R) Interactive Optimizer 12.10.0.0
  with Simplex, Mixed Integer & Barrier Optimizers
5725-A06 5725-A29 5724-Y48 5724-Y49 5724-Y54 5724-Y55 5655-Y21
Copyright IBM Corp. 1988, 2019.  All Rights Reserved.

Type 'help' for a list of available commands.
Type 'help' followed by a command name for more
information on commands.

CPLEX> Logfile 'cplex.log' closed.
Logfile 'C:\Users\wenmi\Desktop\competitiveMPEC\logs\tmppyk7wfnn.cplex.log' open.
CPLEX> New value for parallel optimization mode: -1
CPLEX> New value for mixed integer optimality gap tolerance: 0.05
CPLEX> New value for deterministic time limit in ticks: 100000
CPLEX> Problem 'C:\Users\wenmi\Desktop\competitiveMPEC\logs\tmpaxqmr77h.pyomo.lp' read.
Read time = 0.31 sec. (27.45 ticks)
CPLEX> MIP start file 'C:\Users\wenmi\Desktop\competitiveMPEC\logs\tmpwfx2qkrb.cplex.mst' read.
CPLEX> Problem name         : C:\Users\wenmi\Desktop\competitiveMPEC\logs\tmpaxqmr77h.pyomo.lp
Objective sense      : Maximize
Variables            :  109219  [Nneg: 1,  Box: 45494,  Free: 8928,
                                 Binary: 54796]
Objective nonzeros   :   18913
Linear constraints   :  246995  [Less: 82866,  Greater: 118424,  Equal: 45705]
  Nonzeros           :  580828
  RHS nonzeros       :  134590

Variables            : Min LB: -5000.000        Max UB: 1000000.       
Objective nonzeros   : Min   : 0.008333333      Max   : 2500.000       
Linear constraints   :
  Nonzeros           : Min   : 0.008333333      Max   : 1000000.       
  RHS nonzeros       : Min   : 0.008333333      Max   : 1000000.       
CPLEX> Version identifier: 12.10.0.0 | 2019-11-26 | 843d4de2ae
CPXPARAM_Parallel                                -1
CPXPARAM_DetTimeLimit                            100000
CPXPARAM_MIP_Tolerances_MIPGap                   0.050000000000000003
Warning:  No solution found from 1 MIP starts.
Retaining values of one MIP start for possible repair.
Tried aggregator 3 times.
MIP Presolve eliminated 181889 rows and 43049 columns.
MIP Presolve added 6047 rows and 0 columns.
MIP Presolve modified 48792 coefficients.
Aggregator did 25824 substitutions.
Reduced MIP has 45329 rows, 38714 columns, and 125602 nonzeros.
Reduced MIP has 15227 binaries, 0 generals, 0 SOSs, and 0 indicators.
Presolve time = 0.33 sec. (329.67 ticks)
Probing fixed 832 vars, tightened 6950 bounds.
Probing time = 0.08 sec. (14.40 ticks)
Tried aggregator 2 times.
Detecting symmetries...
MIP Presolve eliminated 1856 rows and 1664 columns.
MIP Presolve modified 5511 coefficients.
Aggregator did 48 substitutions.
Reduced MIP has 43425 rows, 37002 columns, and 120082 nonzeros.
Reduced MIP has 14395 binaries, 0 generals, 0 SOSs, and 0 indicators.
Presolve time = 0.14 sec. (205.86 ticks)
Probing fixed 0 vars, tightened 145 bounds.
Probing time = 0.17 sec. (19.07 ticks)
Clique table members: 80752.
MIP emphasis: balance optimality and feasibility.
MIP search method: dynamic search.
Parallel mode: opportunistic, using up to 16 threads.
Root relaxation solution time = 0.61 sec. (1662.07 ticks)

        Nodes                                         Cuts/
   Node  Left     Objective  IInf  Best Integer    Best Bound    ItCnt     Gap

      0     0     5611.2992   405                   5611.2992    10842         
      0     0     5611.2992   405                    Cuts: 63    10859         
*     0+    0                         5578.3761     5611.2992             0.59%

Cover cuts applied:  1
Flow cuts applied:  85

Root node processing (before b&c):
  Real time             =    2.44 sec. (3451.87 ticks)
Parallel b&c, 16 threads:
  Real time             =    0.00 sec. (0.00 ticks)
  Sync time (average)   =    0.00 sec.
  Wait time (average)   =    0.00 sec.
                          ------------
Total (root+branch&cut) =    2.44 sec. (3451.87 ticks)

Solution pool: 1 solution saved.

MIP - Integer optimal, tolerance (0.05/1e-06):  Objective =  5.5783760520e+03
Current MIP best bound =  5.6112991612e+03 (gap = 32.9231, 0.59%)
Solution time =    2.44 sec.  Iterations = 10880  Nodes = 0 (1)
Deterministic time = 3452.19 ticks  (1416.57 ticks/sec)

CPLEX> Incumbent solution written to file 'C:\Users\wenmi\Desktop\competitiveMPEC\logs\tmpihgub5_2.cplex.sol'.
CPLEX> Exporting results... 
